GeneratedTests/Random_9/Random_9_1.tsp
NAME: Random_9_1
TYPE: TSP
DIMENSION: 9
EDGE_WEIGHT_TYPE: EUC_2D
NODE_COORD_SECTION
1 10.624932 9.280051
2 19.551317 0.9758064
3 15.101123 26.188196
4 25.716824 6.6097198
5 11.743927 18.217548
6 14.856733 17.569239
7 16.111431 23.684126
8 20.705227 21.149126
9 17.883108 7.952665
EOF
