GeneratedTests/Random_9/Random_9_1.txt
NAME: Random_9_1
TYPE: TSP
DIMENSION: 9
EDGE_WEIGHT_TYPE: EUC_2D
NODE_COORD_SECTION
1 0.2599302 12.39823
2 8.365994 4.4957824
3 12.137545 16.346651
4 22.687124 23.42229
5 16.096407 26.607477
6 0.89069724 17.159935
7 2.5552258 16.933775
8 12.06712 10.131431
9 14.463816 1.4812794
EOF
